30 30
20
3 3   15 23
3 4   15 26
5 3   25 0 
6 3   17 17
7 3   8 27
8 3   0 27
9 3   18 23
3 10  0 17
11 3   0 14
3 13  27 17
14 3   3 17
16 3   7 20
19 3   11 14
25 3   0 0 
4 3   3 24
4 4   3 20
4 6   23 17
8 4   7 23
9 4   18 26
30 11  0 3 
